1
623 694 669  460
20
565 452 759  87 116
509 326 194  270 219
541 223 252  164 278
711 741 28  56 265
705 251 202  68 277
32 306 371  127 14
589 768 522  123 208
532 225 582  280 145
197 171 335  164 64
748 446 593  217 189
617 771 214  152 26
444 14 32  203 264
789 468 320  160 150
606 362 665  292 74
618 408 1  32 293
597 293 323  128 49
783 281 539  277 193
750 239 762  85 248
209 171 564  231 281
722 540 351  187 51
